(set-logic HORN)
(declare-fun state (Int Int Int (Array Int Int) Int (Array Int Int) Int Int Int (Array Int Int) (Array Int Int) Int Int (Array Int Int) Bool Bool Bool Int Int Int Int Int) Bool)
(assert (forall ((|A_6| Int) (|.y.12| Int) (|.y.13| Int) (|B_6| (Array Int Int)) (|C_5| Int) (|D_5| (Array Int Int)) (|E_5| Int) (|F_5| Int) (|.y.14| Int) (|G_5| (Array Int Int)) (|.y.15| (Array Int Int)) (|H_5| Int) (|.y.16| Int) (|.y.17| (Array Int Int)) (|.loc.18| Bool) (|.loc.19| Bool) (|.loc.20| Bool) (|L_6| Int) (|J_6| Int) (|S_0| Int) (|J_7| Int) (|L_7| Int) (|.x.39| (Array Int Int)) (|.x.40| Int) (|.x.41| (Array Int Int)) (|.x.42| Int) (|M_5| Int) (|.loc.29| Bool) (|.loc.31| Bool) (|.loc.30| Bool) (|.y.26| Int) (|.y.24| (Array Int Int)) (|.x.38| Int) (|.y.28| (Array Int Int)) (|.y.27| Int) (|.y.21| Int) (|.y.23| Int) (|.y.22| Int) (|.y.25| (Array Int Int)) (|.xtv.1| Int) (|.xtv.2| Int) (|.xtv.3| Int) (|.xpv.1| Int) (|.xpv.2| Int)) (=> (and (and (not .loc.18) (not .loc.19)) (not .loc.20)) (state |A_6| |.y.12| |.y.13| |B_6| |C_5| |D_5| |E_5| |F_5| |.y.14| |G_5| |.y.15| |H_5| |.y.16| |.y.17| |.loc.18| |.loc.19| |.loc.20| |L_6| |J_6| |S_0| |J_7| |L_7|))))
(assert (forall ((|A_6| Int) (|.y.12| Int) (|.y.13| Int) (|B_6| (Array Int Int)) (|C_5| Int) (|D_5| (Array Int Int)) (|E_5| Int) (|F_5| Int) (|.y.14| Int) (|G_5| (Array Int Int)) (|.y.15| (Array Int Int)) (|H_5| Int) (|.y.16| Int) (|.y.17| (Array Int Int)) (|.loc.18| Bool) (|.loc.19| Bool) (|.loc.20| Bool) (|L_6| Int) (|J_6| Int) (|S_0| Int) (|J_7| Int) (|L_7| Int) (|.x.39| (Array Int Int)) (|.x.40| Int) (|.x.41| (Array Int Int)) (|.x.42| Int) (|M_5| Int) (|.loc.29| Bool) (|.loc.31| Bool) (|.loc.30| Bool) (|.y.26| Int) (|.y.24| (Array Int Int)) (|.x.38| Int) (|.y.28| (Array Int Int)) (|.y.27| Int) (|.y.21| Int) (|.y.23| Int) (|.y.22| Int) (|.y.25| (Array Int Int)) (|.xtv.1| Int) (|.xtv.2| Int) (|.xtv.3| Int) (|.xpv.1| Int) (|.xpv.2| Int)) (=> (and (state |A_6| |.y.12| |.y.13| |B_6| |C_5| |D_5| |E_5| |F_5| |.y.14| |G_5| |.y.15| |H_5| |.y.16| |.y.17| |.loc.18| |.loc.19| |.loc.20| |L_6| |J_6| |S_0| |J_7| |L_7|) (let ((.def_32 (not .loc.18))) (let ((.def_33 (not .loc.19))) (let ((.def_35 (not .loc.20))) (let ((.def_40 (= F_5 .x.40))) (let ((.def_41 (<= H_5 E_5))) (let ((.def_44 (= G_5 .x.41))) (let ((.def_47 (= H_5 .x.42))) (let ((.def_51 (= M_5 0))) (let ((.def_57 (not (<= L_6 0)))) (let ((.def_58 (<= C_5 0))) (let ((.def_60 (<= A_6 0))) (let ((.def_62 (not (<= J_6 0)))) (let ((.def_85 (not .def_58))) (let ((.def_91 (= (+ E_5 (* (- 1) M_5)) (- 1)))) (let ((.def_95 (= C_5 .x.40))) (let ((.def_97 (= D_5 .x.41))) (let ((.def_99 (= F_5 .x.42))) (let ((.def_103 (not .loc.29))) (let ((.def_107 (not .loc.30))) (let ((.def_122 (not .loc.31))) (let ((.def_125 (<= .y.16 E_5))) (let ((.def_143 (= .y.24 (store G_5 L_6 (select D_5 J_6))))) (let ((.def_145 (<= F_5 0))) (let ((.def_146 (not .def_145))) (let ((.def_149 (= (+ C_5 (+ E_5 (* (- 1) J_6))) 0))) (let ((.def_153 (= (+ E_5 (+ F_5 (* (- 1) L_6))) 0))) (let ((.def_155 (or .def_57 .def_145))) (let ((.def_157 (or .def_58 .def_62))) (let ((.def_159 (= H_5 .y.26))) (let ((.def_163 (= A_6 .x.38))) (let ((.def_182 (<= .y.14 .y.13))) (let ((.def_249 (<= .y.12 0))) (or (or (and (= B_6 .x.39) (or (or (and (or (or (and (or (and .def_35 (and .loc.19 (and .loc.18 (and (and (and (and .def_40 .def_41) .def_44) .def_47) .def_51)))) (and (and (and (and (or .def_57 .def_58) (and (or .def_60 .def_62) (and (and (= (+ C_5 (+ E_5 (* (- 1) L_6))) 0) (and (= (+ A_6 (+ E_5 (* (- 1) J_6))) 0) (and (and (not .def_60) (and (not (<= F_5 E_5)) (and (= (select B_6 J_6) (select D_5 L_6)) (and .def_32 (and .loc.20 .def_33))))) .def_85))) .def_91))) .def_95) .def_97) .def_99)) (and (and .def_103 .loc.31) .def_107)) (and (= .y.16 .y.26) (and (and (= .y.17 .y.24) (and (and .def_32 (and .loc.30 (and .loc.29 (and .def_35 (and .loc.19 (and .def_51 (and .def_47 (and .def_40 .def_44)))))))) .def_122)) .def_125))) (and (and (and (and (and (and (and (and .def_122 (and .def_99 (and .def_97 (and .def_95 (and .def_91 (and .def_85 (and .loc.30 (and .loc.29 (and .def_35 (and .loc.19 (and .loc.18 (not .def_41)))))))))))) .def_143) .def_146) .def_149) .def_153) .def_155) .def_157) .def_159)) .def_163) (and (= G_5 .y.28) (and (= .y.14 .y.27) (and (= F_5 .y.26) (and (= E_5 .x.42) (and (= .y.12 .x.38) (and (and (= .y.15 .y.24) (and .def_122 (and .def_97 (and .def_95 (and .def_33 (and .def_103 (and .loc.30 (and .def_35 (and .loc.18 .def_51))))))))) .def_182))))))) (and (= .y.17 .y.28) (and (= .y.16 .y.27) (and (not .def_125) (and .def_159 (and .def_157 (and .def_155 (and .def_153 (and .def_149 (and .def_146 (and .def_143 (and .def_122 (and .def_99 (and .def_97 (and .def_95 (and .def_91 (and .def_85 (and .def_32 (and .def_103 (and .loc.30 (and .def_35 (and .loc.19 .def_163))))))))))))))))))))))) (and (not (<= .x.42 0)) (and (not (<= M_5 0)) (and (not (<= .x.40 0)) (and (not (<= .y.21 0)) (and (not (<= .y.23 0)) (and (= .y.22 0) (and .def_122 (and .def_32 (and .def_33 (and .def_107 (and .loc.29 (and .def_35 .def_163))))))))))))) (and (= .y.15 .y.25) (and (= G_5 .y.24) (and (= .y.14 .y.23) (and (= E_5 M_5) (and (= .y.12 .y.21) (and (or .def_62 .def_249) (and (or .def_58 (not (<= S_0 0))) (and (not .def_182) (and (= (+ .y.13 (+ C_5 (* (- 1) S_0))) 0) (and (= (+ .y.12 (+ .y.13 (* (- 1) J_6))) 0) (and (not .def_249) (and (= (+ .y.13 (* (- 1) .y.22)) (- 1)) (and (= .x.41 (store D_5 S_0 L_6)) (and (= .x.39 (store B_6 J_6 L_6)) (and .def_122 (and .def_99 (and .def_95 (and .def_85 (and .def_33 (and .def_107 (and .loc.29 (and .def_35 (and .loc.18 .def_163))))))))))))))))))))))))))))))))))))))))))))))))))))))))) (state |.x.38| |.y.21| |.y.22| |.x.39| |.x.40| |.x.41| |M_5| |.x.42| |.y.23| |.y.24| |.y.25| |.y.26| |.y.27| |.y.28| |.loc.29| |.loc.30| |.loc.31| |.xtv.1| |.xtv.2| |.xtv.3| |.xpv.1| |.xpv.2|))))
(assert (forall ((|A_6| Int) (|.y.12| Int) (|.y.13| Int) (|B_6| (Array Int Int)) (|C_5| Int) (|D_5| (Array Int Int)) (|E_5| Int) (|F_5| Int) (|.y.14| Int) (|G_5| (Array Int Int)) (|.y.15| (Array Int Int)) (|H_5| Int) (|.y.16| Int) (|.y.17| (Array Int Int)) (|.loc.18| Bool) (|.loc.19| Bool) (|.loc.20| Bool) (|L_6| Int) (|J_6| Int) (|S_0| Int) (|J_7| Int) (|L_7| Int) (|.x.39| (Array Int Int)) (|.x.40| Int) (|.x.41| (Array Int Int)) (|.x.42| Int) (|M_5| Int) (|.loc.29| Bool) (|.loc.31| Bool) (|.loc.30| Bool) (|.y.26| Int) (|.y.24| (Array Int Int)) (|.x.38| Int) (|.y.28| (Array Int Int)) (|.y.27| Int) (|.y.21| Int) (|.y.23| Int) (|.y.22| Int) (|.y.25| (Array Int Int)) (|.xtv.1| Int) (|.xtv.2| Int) (|.xtv.3| Int) (|.xpv.1| Int) (|.xpv.2| Int)) (=> (state |A_6| |.y.12| |.y.13| |B_6| |C_5| |D_5| |E_5| |F_5| |.y.14| |G_5| |.y.15| |H_5| |.y.16| |.y.17| |.loc.18| |.loc.19| |.loc.20| |L_6| |J_6| |S_0| |J_7| |L_7|) (let ((.def_58 (<= C_5 0))) (let ((.def_60 (<= A_6 0))) (not (and (and .loc.20 (and (not .loc.18) (not .loc.19))) (and (and (and (not (= (select B_6 J_7) (select D_5 L_7))) (and (and (and (not .def_58) (and (not .def_60) (not (<= F_5 E_5)))) (= (+ C_5 (+ E_5 (* (- 1) L_7))) 0)) (= (+ A_6 (+ E_5 (* (- 1) J_7))) 0))) (or .def_58 (not (<= L_7 0)))) (or .def_60 (not (<= J_7 0)))))))))))
(check-sat)
